# Objective value = 97
WA1n 0
WA1p 0
WA2n 1
WA2p 0
WB1n 0
WB1p 0
WB2n 1
WB2p 0
WC1n 1
WC1p 0
WD1n 1
WD1p 0
WE1n 2
WE1p 0
WF1n 0
WF1p 2
WG1n 4
WG1p 0
WH1n 4
WH1p 0
WI1n 8
WI1p 0
WJ1n 8
WJ1p 0
WK1n 16
WK1p 0
WL1n 16
WL1p 0
WT1n 29
WT1p 0
WT2n 1
WT2p 0
100 129
a 1
b 1
c 1
d 1
e 1
f 1
g 1
h 1
i 1
j 1
k 1
l 1
m 1
n 1
o 1
p 1
